c User generated cnf file
p cnf 8 29
7 8 -8 0 
2 -2 7 0 
8 1 -3 0 
8 5 -1 0 
2 8 -5 0 
5 4 -8 0 
3 6 -2 0 
5 -8 7 0 
4 6 -8 0 
1 5 -6 0 
3 -3 3 0 
3 6 -3 0 
5 7 -2 0 
5 -1 1 0 
6 6 -5 0 
4 -8 1 0 
8 -6 5 0 
1 1 -6 0 
2 1 -1 0 
6 -1 4 0 
8 6 -5 0 
2 7 -1 0 
1 4 -6 0 
1 -7 2 0 
5 8 -1 0 
1 3 -4 0 
6 3 -7 0 
2 -6 8 0 
6 7 -3 0 
